job_count = 28 ;
duration = [|21, 14, 6, 4|4, 24, 11, 4|37, 9, 18, 9|38, 4, 16, 9|24, 18, 8, 6|31, 3, 2, 1|20, 11, 15, 2|25, 7, 8, 9|9, 24, 18, 6|21, 22, 15, 9|18, 24, 6, 9|16, 28, 12, 5|18, 27, 2, 7|9, 26, 13, 1|33, 21, 17, 3|15, 15, 5, 9|17, 25, 18, 7|18, 25, 6, 4|29, 23, 11, 5|39, 22, 15, 1|12, 13, 9, 4|15, 14, 13, 9|35, 9, 3, 1|36, 18, 8, 2|5, 25, 15, 9|28, 9, 2, 4|23, 15, 13, 5|15, 17, 14, 1|] ;
machine_count = 4 ;
cost = [|14, 24, 59, 61|10, 34, 59, 64|18, 38, 31, 70|17, 26, 48, 43|11, 30, 34, 62|17, 35, 51, 63|17, 27, 38, 59|13, 20, 53, 56|13, 20, 51, 77|19, 37, 50, 42|10, 20, 46, 50|19, 30, 57, 41|14, 34, 38, 67|11, 25, 53, 65|17, 25, 35, 74|12, 23, 31, 48|17, 33, 34, 42|14, 35, 43, 74|17, 37, 59, 64|12, 20, 56, 48|16, 26, 55, 65|12, 39, 38, 49|12, 36, 59, 53|13, 39, 52, 41|11, 36, 49, 43|12, 22, 41, 40|12, 38, 44, 58|17, 22, 40, 45|] ;
deadline = [58, 58, 58, 58, 58, 58, 58, 58, 58, 58, 58, 58, 58, 58, 58, 58, 58, 58, 58, 58, 58, 58, 58, 58, 58, 58, 58, 58] ;
release = [0, 0, 0, 0, 0, 0, 0, 0, 0, 0, 0, 0, 0, 0, 0, 0, 0, 0, 0, 0, 0, 0, 0, 0, 0, 0, 0, 0] ;
resource = [|1, 1, 1, 1|6, 6, 6, 6|1, 1, 1, 1|2, 2, 2, 2|4, 4, 4, 4|5, 5, 5, 5|9, 9, 9, 9|3, 3, 3, 3|2, 2, 2, 2|1, 1, 1, 1|1, 1, 1, 1|2, 2, 2, 2|5, 5, 5, 5|8, 8, 8, 8|3, 3, 3, 3|8, 8, 8, 8|4, 4, 4, 4|3, 3, 3, 3|3, 3, 3, 3|6, 6, 6, 6|3, 3, 3, 3|6, 6, 6, 6|3, 3, 3, 3|9, 9, 9, 9|6, 6, 6, 6|8, 8, 8, 8|7, 7, 7, 7|4, 4, 4, 4|] ;
capacities = [10, 10, 10, 10] ;
